








































































































7 63 68 11 71 14 21 
0 36 50 17 20 56 57 
51 60 5 34 37 12 52 22 
35 55 72 44 74 18 45 27 
1 9 76 47 33 32 40 58 13 
4 15 6 49 53 62 48 2 
25 23 65 16 46 66 43 70 
3 75 24 54 28 10 38 
8 29 30 41 64 42 73 69 
39 59 31 61 67 19 26 
